CPXPARAM_Read_DataCheck                          1
Found incumbent of value 0.000000 after 0.00 sec. (0.05 ticks)
Tried aggregator 1 time.
MIP Presolve eliminated 7 rows and 0 columns.
MIP Presolve modified 1 coefficients.
Reduced MIP has 226 rows, 2010 columns, and 8634 nonzeros.
Reduced MIP has 2010 binaries, 0 generals, 0 SOSs, and 0 indicators.
Presolve time = 0.00 sec. (3.57 ticks)
Probing time = 0.00 sec. (1.65 ticks)
Tried aggregator 1 time.
Reduced MIP has 226 rows, 2010 columns, and 8634 nonzeros.
Reduced MIP has 2010 binaries, 0 generals, 0 SOSs, and 0 indicators.
Presolve time = 0.03 sec. (3.91 ticks)
Probing time = 0.00 sec. (1.64 ticks)
Clique table members: 2802.
MIP emphasis: balance optimality and feasibility.
MIP search method: dynamic search.
Parallel mode: deterministic, using up to 4 threads.
Root relaxation solution time = 0.02 sec. (6.21 ticks)

        Nodes                                         Cuts/
   Node  Left     Objective  IInf  Best Integer    Best Bound    ItCnt     Gap

*     0+    0                            0.0000    12588.0000              --- 
*     0+    0                          807.0000    12588.0000              --- 
      0     0     6952.0500    10      807.0000     6952.0500      446  761.47%
      0     0     5081.2071   213      807.0000     Cuts: 156     1309  529.64%
*     0+    0                         3460.0000     5081.2071            46.86%
      0     0        cutoff           3460.0000     3460.0000     1647    0.00%
Elapsed time = 0.17 sec. (134.31 ticks, tree = 0.01 MB, solutions = 3)

Clique cuts applied:  274
Cover cuts applied:  3
Implied bound cuts applied:  1
Mixed integer rounding cuts applied:  5
Zero-half cuts applied:  5

Root node processing (before b&c):
  Real time             =    0.17 sec. (134.45 ticks)
Parallel b&c, 4 threads:
  Real time             =    0.00 sec. (0.00 ticks)
  Sync time (average)   =    0.00 sec.
  Wait time (average)   =    0.00 sec.
                          ------------
Total (root+branch&cut) =    0.17 sec. (134.45 ticks)
